INSTANCES E-22, E-33 AND E-51

These files are organized as follows:

NAME : Name of the Instance
COMMENT : Comment
TYPE : 2ECVRP (Two-Echelon Capacitated Vehicle Routing Problem)
DIMENSION : Total number of nodes, including depot and satellites
SATELLITES : Number of satellites
CUSTOMERS : Number of Customers
EDGE_WEIGHT_TYPE : In all these instances, the travelling costs are eucliedan 2D distances
FLEET_SECTION (description of the vehicles' characteristics)
L1CAPACITY : Capacity of 1st-level vehicles
L2CAPACITY : Capacity of 2nd-level vehicles
L1FLEET: Number of 1st-level vehicles
L1FLEET: Number of 2nd-level vehicles
NODE_COORD_SECTION
In this section we give the coordinates of the depot and each customer. The depot is the node 0.
The first column indicates the number of the node, the second the x coordinate and the third the Y coordinate.
SATELLITE_SECTION
In this section we give the coordinates of each satellite.
The first column indicates the number of the satellite, the second the x coordinate and the third the Y coordinate.
DEMAND_SECTION
In this section the demands of the customers are enumerated.
The first column indicates the number of the node and the second the demand of the node. The node corresponding to the depot have demand 0.
DEPOT_SECTION
In this section is indicated which node is the depot (usually 0)
-1
EOF

